(set-info :smt-lib-version 2.6)
(set-logic LIA)
(set-info
  :source |
 Generated by PSyCO 0.1
 More info in N. P. Lopes and J. Monteiro. Weakest Precondition Synthesis for
 Compiler Optimizations, VMCAI'14.
|)
(set-info :category "industrial")
(set-info :status unsat)
(declare-fun W_S1_V4 () Bool)
(declare-fun W_S1_V2 () Bool)
(declare-fun W_S1_V1 () Bool)
(declare-fun R_E1_V4 () Bool)
(declare-fun R_E1_V2 () Bool)
(declare-fun R_E1_V3 () Bool)
(declare-fun R_S1_V1 () Bool)
(declare-fun DISJ_W_S1_R_E1 () Bool)
(declare-fun R_S1_V4 () Bool)
(declare-fun R_S1_V2 () Bool)
(declare-fun R_S1_V3 () Bool)
(declare-fun DISJ_W_S1_R_S1 () Bool)
(declare-fun W_S1_V3 () Bool)
(declare-fun R_E1_V1 () Bool)
(assert
 (let
 (($x1171
   (forall
    ((V3_0 Int) (V2_0 Int) 
     (V4_0 Int) (MW_S1_V1 Bool) 
     (MW_S1_V3 Bool) (MW_S1_V2 Bool) 
     (MW_S1_V4 Bool) (S1_V3_!152 Int) 
     (S1_V3_!158 Int) (S1_V4_!154 Int) 
     (S1_V4_!160 Int) (S1_V1_!151 Int) 
     (S1_V1_!157 Int) (S1_V2_!153 Int) 
     (S1_V2_!159 Int) (E1_!150 Int) 
     (E1_!155 Int) (E1_!156 Int) 
     (E1_!161 Int))
    (let ((?x801 (ite MW_S1_V4 S1_V4_!160 V4_0)))
    (let (($x751 (= (ite MW_S1_V4 S1_V4_!154 V4_0) ?x801)))
    (let ((?x849 (ite MW_S1_V2 S1_V2_!159 V2_0)))
    (let ((?x850 (ite MW_S1_V2 S1_V2_!153 V2_0)))
    (let (($x848 (= ?x850 ?x849)))
    (let ((?x763 (ite MW_S1_V3 S1_V3_!158 V3_0)))
    (let (($x747 (= (ite MW_S1_V3 S1_V3_!152 V3_0) ?x763)))
    (let
    (($x817
      (and (not (<= V2_0 E1_!150))
      (>= (ite MW_S1_V1 S1_V1_!151 E1_!150) (+ (- 1) ?x850))
      (not (<= V2_0 E1_!155)) 
      (>= V2_0 (+ 1 E1_!156))
      (not (<= E1_!161 (+ (- 1) (ite MW_S1_V1 S1_V1_!157 (+ (- 1) V2_0))))))))
    (let (($x802 (or (not MW_S1_V4) W_S1_V4)))
    (let (($x754 (or (not MW_S1_V2) W_S1_V2)))
    (let (($x885 (or (not MW_S1_V1) W_S1_V1)))
    (let (($x1146 (= E1_!161 E1_!156)))
    (let (($x76 (not R_E1_V4)))
    (let (($x1070 (or $x76 (= ?x801 V4_0))))
    (let (($x74 (not R_E1_V2)))
    (let (($x555 (or $x74 (= ?x849 V2_0))))
    (let (($x72 (not R_E1_V3)))
    (let (($x1159 (or $x72 (= ?x763 V3_0))))
    (let (($x914 (not (and $x1159 $x555 $x1070))))
    (let (($x1173 (= E1_!155 E1_!156)))
    (let (($x1135 (= E1_!150 E1_!156)))
    (let (($x593 (= E1_!150 E1_!155)))
    (let (($x1221 (= S1_V2_!159 S1_V2_!153)))
    (let (($x1222 (= S1_V1_!151 S1_V1_!157)))
    (let (($x881 (= S1_V4_!160 S1_V4_!154)))
    (let (($x880 (= S1_V3_!152 S1_V3_!158)))
    (let
    (($x755
      (and (or (not (or (not R_S1_V1) (= E1_!150 (+ (- 1) V2_0)))) $x880)
      (or (not (or (not R_S1_V1) (= V2_0 (+ 1 E1_!150)))) $x881)
      (or (not (or (not R_S1_V1) (= E1_!150 (+ (- 1) V2_0)))) $x1222)
      (or (not (or (not R_S1_V1) (= V2_0 (+ 1 E1_!150)))) $x1221) $x593
      $x1135 $x1173 (or $x914 (= E1_!161 E1_!150))
      (or $x914 (= E1_!161 E1_!155)) 
      (or $x914 $x1146) $x885 $x754 $x802)))
    (or (not $x755) (not $x817)
    (and (= (ite MW_S1_V1 S1_V1_!151 E1_!150) (+ (- 1) ?x849)) $x747 $x848
    $x751))))))))))))))))))))))))))))))))
 (let
 (($x597 (not (or R_E1_V3 (and W_S1_V2 R_E1_V2) (and W_S1_V4 R_E1_V4)))))
 (let
 (($x37
   (or (and W_S1_V1 R_S1_V1) R_S1_V3 
   (and W_S1_V2 R_S1_V2) (and W_S1_V4 R_S1_V4))))
 (let (($x39 (= DISJ_W_S1_R_S1 (not $x37))))
 (let (($x70 (not R_E1_V1)))
 (and $x70 W_S1_V3 $x39 (= DISJ_W_S1_R_E1 $x597) $x1171)))))))
(assert (not (and (not W_S1_V2) DISJ_W_S1_R_S1 DISJ_W_S1_R_E1)))
(assert (not (and (not W_S1_V1) (not W_S1_V2))))
(assert
 (let (($x522 (not W_S1_V2)))
 (let (($x102 (not R_S1_V1)))
 (let (($x1273 (and $x102 $x522 DISJ_W_S1_R_E1))) (not $x1273)))))
(check-sat)
(exit)

